NAME: teste4
TYPE: TSP
COMMENT: 3 cities around the world (Groetschel)
DIMENSION: 3
EDGE_WEIGHT_TYPE: GEO
DISPLAY_DATA_TYPE: COORD_DISPLAY
NODE_COORD_SECTION
0001 90.00 0.00
0002 71.17 -156.47
0003 64.51 -147.43
EOF
